4600 4358 100 98 97 96 95 94 93 91 90 89 88 87 86 85 84 82 81 80 79 78 77 76 75 74 73 72 70 69 68 67 66 65 64 63 61 60 59 58 57 55 54 52 51 50 48 46 44 43 42 40 39 38 37 36 35 34 33 31 30 28 27 24 23 21 20 19 16 15 14 13 12 10 9 7 6 5 4 3 2 